NAME 
ROWS
 N  OBJ
 L  R0      
 L  R1      
 E  R2      
 E  R3      
 E  R4      
 E  R5      
 E  R6      
 E  R7      
 E  R8      
 E  R9      
 E  R10     
 E  R11     
 E  R12     
 E  R13     
 E  R14     
 E  R15     
 E  R16     
 E  R17     
 E  R18     
 E  R19     
 E  R20     
 E  R21     
COLUMNS
    MARKER    'MARKER'                 'INTORG'
    I0(10)    OBJ       -128
    I0(10)    R0        -189
    I0(10)    R1        111
    I0(10)    R2        19
    I0(10)    R3        17
    I0(10)    R4        3
    I0(10)    R5        10
    I0(10)    R10       8
    I0(10)    R12       4
    I0(10)    R13       2
    I0(10)    R21       1
    I1(14)    OBJ       -149
    I1(14)    R0        1
    I1(14)    R1        -144
    I1(14)    R3        19
    I1(14)    R4        10
    I1(14)    R5        -1
    I1(14)    R6        2
    I1(14)    R7        14
    I1(14)    R8        5
    I1(14)    R9        18
    I1(14)    R10       11
    I1(14)    R11       16
    I1(14)    R12       16
    I1(14)    R13       10
    I1(14)    R21       1
    I2(14)    OBJ       160
    I2(14)    R0        -127
    I2(14)    R1        -37
    I2(14)    R2        17
    I2(14)    R3        3
    I2(14)    R4        16
    I2(14)    R5        18
    I2(14)    R6        6
    I2(14)    R7        16
    I2(14)    R9        14
    I2(14)    R10       9
    I2(14)    R11       -1
    I2(14)    R12       18
    I2(14)    R13       8
    I2(14)    R21       1
    I3(12)    OBJ       15
    I3(12)    R0        -4
    I3(12)    R1        78
    I3(12)    R3        9
    I3(12)    R4        2
    I3(12)    R5        -1
    I3(12)    R6        2
    I3(12)    R7        5
    I3(12)    R8        9
    I3(12)    R9        5
    I3(12)    R11       17
    I3(12)    R13       13
    I3(12)    R21       1
    I4(12)    OBJ       -31
    I4(12)    R0        97
    I4(12)    R1        98
    I4(12)    R4        1
    I4(12)    R6        1
    I4(12)    R7        6
    I4(12)    R8        15
    I4(12)    R9        16
    I4(12)    R10       14
    I4(12)    R11       15
    I4(12)    R12       19
    I4(12)    R13       19
    I4(12)    R21       1
    I5(11)    OBJ       -32
    I5(11)    R0        -60
    I5(11)    R1        -161
    I5(11)    R2        15
    I5(11)    R3        17
    I5(11)    R6        12
    I5(11)    R9        8
    I5(11)    R10       18
    I5(11)    R11       7
    I5(11)    R12       7
    I5(11)    R13       14
    I5(11)    R21       1
    I6(12)    OBJ       7
    I6(12)    R0        -45
    I6(12)    R1        162
    I6(12)    R2        6
    I6(12)    R3        7
    I6(12)    R4        16
    I6(12)    R5        3
    I6(12)    R6        7
    I6(12)    R7        2
    I6(12)    R8        -1
    I6(12)    R11       18
    I6(12)    R13       18
    I6(12)    R21       1
    I7(12)    OBJ       74
    I7(12)    R0        -51
    I7(12)    R1        -29
    I7(12)    R2        4
    I7(12)    R4        9
    I7(12)    R5        11
    I7(12)    R6        -1
    I7(12)    R7        8
    I7(12)    R9        16
    I7(12)    R11       15
    I7(12)    R12       7
    I7(12)    R13       -1
    I7(12)    R21       1
    I8(13)    OBJ       168
    I8(13)    R0        11
    I8(13)    R1        -26
    I8(13)    R3        14
    I8(13)    R4        5
    I8(13)    R5        7
    I8(13)    R6        4
    I8(13)    R7        15
    I8(13)    R8        9
    I8(13)    R9        9
    I8(13)    R10       5
    I8(13)    R11       17
    I8(13)    R13       18
    I8(13)    R21       1
    I9(13)    OBJ       62
    I9(13)    R0        8
    I9(13)    R1        -96
    I9(13)    R2        15
    I9(13)    R3        17
    I9(13)    R5        8
    I9(13)    R6        15
    I9(13)    R7        8
    I9(13)    R8        9
    I9(13)    R9        2
    I9(13)    R11       19
    I9(13)    R12       3
    I9(13)    R13       -1
    I9(13)    R21       1
    I10(14)   OBJ       107
    I10(14)   R0        -149
    I10(14)   R1        -186
    I10(14)   R2        9
    I10(14)   R3        9
    I10(14)   R4        12
    I10(14)   R5        17
    I10(14)   R7        3
    I10(14)   R8        13
    I10(14)   R9        12
    I10(14)   R10       3
    I10(14)   R11       12
    I10(14)   R12       13
    I10(14)   R13       12
    I10(14)   R21       1
    I11(13)   OBJ       -4
    I11(13)   R0        -144
    I11(13)   R1        56
    I11(13)   R2        7
    I11(13)   R3        -1
    I11(13)   R4        16
    I11(13)   R5        2
    I11(13)   R6        9
    I11(13)   R7        15
    I11(13)   R8        5
    I11(13)   R9        12
    I11(13)   R10       17
    I11(13)   R11       5
    I11(13)   R21       1
    MARKER    'MARKER'                 'INTEND'
    C12(20)   OBJ       7
    C12(20)   R0        -6
    C12(20)   R1        -10
    C12(20)   R2        6
    C12(20)   R3        -1
    C12(20)   R4        17
    C12(20)   R5        19
    C12(20)   R7        18
    C12(20)   R8        14
    C12(20)   R9        5
    C12(20)   R10       3
    C12(20)   R11       11
    C12(20)   R12       14
    C12(20)   R13       9
    C12(20)   R14       14
    C12(20)   R15       8
    C12(20)   R16       3
    C12(20)   R17       9
    C12(20)   R18       2
    C12(20)   R19       15
    C12(20)   R20       4
    C13(14)   OBJ       -9
    C13(14)   R0        -9
    C13(14)   R1        9
    C13(14)   R2        3
    C13(14)   R4        18
    C13(14)   R7        3
    C13(14)   R8        17
    C13(14)   R9        1
    C13(14)   R10       13
    C13(14)   R11       -1
    C13(14)   R13       12
    C13(14)   R14       12
    C13(14)   R16       14
    C13(14)   R18       1
    C13(14)   R19       16
    C14(17)   OBJ       2
    C14(17)   R0        5
    C14(17)   R1        2
    C14(17)   R2        19
    C14(17)   R3        16
    C14(17)   R5        6
    C14(17)   R6        18
    C14(17)   R7        7
    C14(17)   R8        7
    C14(17)   R9        12
    C14(17)   R10       9
    C14(17)   R11       8
    C14(17)   R13       -1
    C14(17)   R15       12
    C14(17)   R16       1
    C14(17)   R17       19
    C14(17)   R19       14
    C14(17)   R20       3
    C15(13)   OBJ       8
    C15(13)   R0        -3
    C15(13)   R2        10
    C15(13)   R4        18
    C15(13)   R6        12
    C15(13)   R7        4
    C15(13)   R8        18
    C15(13)   R9        5
    C15(13)   R10       15
    C15(13)   R11       8
    C15(13)   R14       5
    C15(13)   R17       11
    C15(13)   R18       7
    C15(13)   R19       11
    C16(14)   OBJ       4
    C16(14)   R0        3
    C16(14)   R1        2
    C16(14)   R2        3
    C16(14)   R3        8
    C16(14)   R4        12
    C16(14)   R8        17
    C16(14)   R9        -1
    C16(14)   R10       16
    C16(14)   R11       11
    C16(14)   R13       2
    C16(14)   R14       3
    C16(14)   R15       2
    C16(14)   R18       17
    C16(14)   R19       14
    C17(16)   OBJ       -6
    C17(16)   R0        -10
    C17(16)   R1        -1
    C17(16)   R2        10
    C17(16)   R3        11
    C17(16)   R4        4
    C17(16)   R5        5
    C17(16)   R6        6
    C17(16)   R7        13
    C17(16)   R8        1
    C17(16)   R9        13
    C17(16)   R10       5
    C17(16)   R11       16
    C17(16)   R12       1
    C17(16)   R13       6
    C17(16)   R16       12
    C17(16)   R17       15
    C18(18)   OBJ       -6
    C18(18)   R0        9
    C18(18)   R1        -7
    C18(18)   R2        11
    C18(18)   R3        14
    C18(18)   R4        1
    C18(18)   R5        17
    C18(18)   R6        1
    C18(18)   R8        9
    C18(18)   R10       11
    C18(18)   R11       16
    C18(18)   R12       5
    C18(18)   R13       8
    C18(18)   R15       -1
    C18(18)   R16       7
    C18(18)   R17       7
    C18(18)   R18       1
    C18(18)   R19       -1
    C18(18)   R20       16
    C19(17)   OBJ       -1
    C19(17)   R0        9
    C19(17)   R1        -8
    C19(17)   R2        16
    C19(17)   R4        15
    C19(17)   R6        11
    C19(17)   R7        14
    C19(17)   R9        11
    C19(17)   R10       3
    C19(17)   R11       1
    C19(17)   R12       5
    C19(17)   R14       7
    C19(17)   R15       13
    C19(17)   R16       14
    C19(17)   R17       18
    C19(17)   R18       19
    C19(17)   R19       18
    C19(17)   R20       5
    C20(1)    R2        1
    C21(1)    R3        1
    C22(1)    R4        1
    C23(1)    R5        1
    C24(1)    R6        1
    C25(1)    R7        1
    C26(1)    R8        1
    C27(1)    R9        1
    C28(1)    R10       1
    C29(1)    R11       1
    C30(1)    R12       1
    C31(1)    R13       1
    C32(1)    R14       1
    C33(1)    R15       1
    C34(1)    R16       1
    C35(1)    R17       1
    C36(1)    R18       1
    C37(1)    R19       1
    C38(1)    R20       1
    C39(1)    R21       1
RHS
    RHS1      R0        -1.8429107981220659e+02
    RHS1      R1        -96.5868544600939
    RHS1      R2        80
    RHS1      R3        87
    RHS1      R4        52
    RHS1      R5        90
    RHS1      R6        59
    RHS1      R7        87
    RHS1      R8        94
    RHS1      R9        95
    RHS1      R10       70
    RHS1      R11       87
    RHS1      R12       70
    RHS1      R13       69
    RHS1      R14       63
    RHS1      R15       91
    RHS1      R16       64
    RHS1      R17       86
    RHS1      R18       98
    RHS1      R19       97
    RHS1      R20       94
    RHS1      R21       4
BOUNDS
 UP BND1      I0(10)    1
 UP BND1      I1(14)    1
 UP BND1      I2(14)    1
 UP BND1      I3(12)    1
 UP BND1      I4(12)    1
 UP BND1      I5(11)    1
 UP BND1      I6(12)    1
 UP BND1      I7(12)    1
 UP BND1      I8(13)    1
 UP BND1      I9(13)    1
 UP BND1      I10(14)   1
 UP BND1      I11(13)   1
ENDATA
